c Random 3-CNF over 20 variables and 80 clauses
c Generated with `cnfgen`
c (C) 2012-2016 Massimo Lauria <lauria.massimo@gmail.com>
c https://massimolauria.github.io/cnfgen
c
c COMMAND LINE: cnfgen --output tmp-3-20-80.dimacs --output-format dimacs randkcnf 3 20 80
c
c sdimacs generated by gen-sdimacs
c
p cnf 20 80
r 0.5 1 2 3 4 5 6 7 8 9 10 0
e  11 12 13 14 15 16 17 18 19 20 0
-7 -8 -13 0
9 12 16 0
8 11 -14 0
2 -17 19 0
-10 -13 18 0
10 -17 -20 0
7 -13 -16 0
8 17 18 0
2 -11 -17 0
8 9 -18 0
4 -5 16 0
-4 -6 -9 0
4 6 18 0
-13 -16 17 0
11 16 19 0
-2 4 -13 0
-5 -7 -20 0
-9 10 -17 0
-5 6 -13 0
1 -12 15 0
10 -13 -18 0
-4 -9 -19 0
-8 11 12 0
-4 5 -14 0
-4 -11 19 0
4 10 13 0
9 -11 13 0
-8 11 -12 0
-2 -17 20 0
2 9 -16 0
4 10 11 0
-1 -14 -17 0
-4 7 15 0
7 -8 -12 0
-10 -15 -20 0
-7 -9 -14 0
-4 9 -17 0
5 -19 -20 0
5 -12 -18 0
-4 -11 12 0
3 -4 -11 0
10 -17 20 0
1 -11 -16 0
7 19 -20 0
-4 12 -13 0
-1 15 20 0
6 9 14 0
6 -13 14 0
-1 5 -6 0
9 10 16 0
3 -17 20 0
4 9 -16 0
5 -14 -20 0
3 5 6 0
-11 -14 -15 0
3 -12 18 0
-5 11 12 0
14 15 -18 0
-5 9 -19 0
3 6 -9 0
4 -8 13 0
-4 17 19 0
11 19 -20 0
1 5 7 0
6 -12 19 0
-7 16 19 0
11 -12 20 0
-2 -16 17 0
-8 14 17 0
1 10 -14 0
6 -7 -15 0
2 -4 -5 0
1 -18 -20 0
-13 17 -19 0
2 -3 -13 0
2 9 -19 0
7 -8 14 0
-7 14 16 0
-1 -3 6 0
6 -8 11 0
